<?xml version="1.0"?> 
<VTKFile type="UnstructuredGrid"> 
   <UnstructuredGrid> 
      <Piece NumberOfPoints="8"  NumberOfCells="2">  
          <Points>  
             <DataArray type="Float64" NumberOfComponents="3" format="ascii">   
0.40974742819314725   0.6803869740298237   0.6095603897347689
0.18908029856727604   0.8826657621097582   0.9948101446669831
0.42810880035852705   0.7139307239938881   0.8769563027186029
0.9496520416940332   0.4010797389600613   0.9248408456291034
0.11634356842093274   0.13591449585580195   0.9657592787733543
0.9523573264999964   0.16401068308454503   0.5049338169612009
0.46102204762490073   0.25977279184660496   0.04106374081754838
0.9466107080068413   0.5643904647140244   0.8205382978325546
             </DataArray>   
          </Points>  
          <Cells>  
             <DataArray type="Int32" Name="connectivity" format="ascii">   
0   1   2   3
4   5   6   7
              </DataArray>   
              <DataArray type="Int32" Name="offsets" format="ascii">   
4
8
              </DataArray>   
              <DataArray type="UInt8" Name="types" format="ascii">   
10
10
              </DataArray>   
          </Cells>  
          <PointData>  
             <DataArray type="Float64" NumberOfComponents="3" Name="Strains" format="ascii">   
0.21081491597263768   0.5046715814036027   0.9828966136835426
0.21081491597263768   0.5046715814036027   0.9828966136835426
0.21081491597263768   0.5046715814036027   0.9828966136835426
0.21081491597263768   0.5046715814036027   0.9828966136835426
0.9869526770996488   0.44458191062115604   0.26457656671299334
0.9869526770996488   0.44458191062115604   0.26457656671299334
0.9869526770996488   0.44458191062115604   0.26457656671299334
0.9869526770996488   0.44458191062115604   0.26457656671299334
0.5364056677845739   0.3066044047717337   0.023650116977604663
0.5364056677845739   0.3066044047717337   0.023650116977604663
0.5364056677845739   0.3066044047717337   0.023650116977604663
0.5364056677845739   0.3066044047717337   0.023650116977604663
0.9844994314254916   0.5020427990495521   0.006542914025791324
0.9844994314254916   0.5020427990495521   0.006542914025791324
0.9844994314254916   0.5020427990495521   0.006542914025791324
0.9844994314254916   0.5020427990495521   0.006542914025791324
0.439871970366439   0.6990911211647852   0.27311442228723515
0.439871970366439   0.6990911211647852   0.27311442228723515
0.439871970366439   0.6990911211647852   0.27311442228723515
0.439871970366439   0.6990911211647852   0.27311442228723515
0.7634673404593704   0.46181410227901576   0.18290602881389828
0.7634673404593704   0.46181410227901576   0.18290602881389828
0.7634673404593704   0.46181410227901576   0.18290602881389828
0.7634673404593704   0.46181410227901576   0.18290602881389828
0.7076201001405596   0.378669383718799   0.8591460310266413
0.7076201001405596   0.378669383718799   0.8591460310266413
0.7076201001405596   0.378669383718799   0.8591460310266413
0.7076201001405596   0.378669383718799   0.8591460310266413
0.11262747541501317   0.06069411846002204   0.6001932652461803
0.11262747541501317   0.06069411846002204   0.6001932652461803
0.11262747541501317   0.06069411846002204   0.6001932652461803
0.11262747541501317   0.06069411846002204   0.6001932652461803
              </DataArray>   
             <DataArray type="Float64" NumberOfComponents="3" Name="Stress" format="ascii">   
0.8756874805044118   0.015576019698378185   0.5744525848687572
0.8756874805044118   0.015576019698378185   0.5744525848687572
0.8756874805044118   0.015576019698378185   0.5744525848687572
0.8756874805044118   0.015576019698378185   0.5744525848687572
0.0064165903569852745   0.6004733140130321   0.4220401254653452
0.0064165903569852745   0.6004733140130321   0.4220401254653452
0.0064165903569852745   0.6004733140130321   0.4220401254653452
0.0064165903569852745   0.6004733140130321   0.4220401254653452
0.8119045699273557   0.6449263547722122   0.4536392342088533
0.8119045699273557   0.6449263547722122   0.4536392342088533
0.8119045699273557   0.6449263547722122   0.4536392342088533
0.8119045699273557   0.6449263547722122   0.4536392342088533
0.25311463523891553   0.12428464516319027   0.5070206558268718
0.25311463523891553   0.12428464516319027   0.5070206558268718
0.25311463523891553   0.12428464516319027   0.5070206558268718
0.25311463523891553   0.12428464516319027   0.5070206558268718
0.005918393252408505   0.7693260193970164   0.048710506962244327
0.005918393252408505   0.7693260193970164   0.048710506962244327
0.005918393252408505   0.7693260193970164   0.048710506962244327
0.005918393252408505   0.7693260193970164   0.048710506962244327
0.7036693469403433   0.6584227720707738   0.46890514379255
0.7036693469403433   0.6584227720707738   0.46890514379255
0.7036693469403433   0.6584227720707738   0.46890514379255
0.7036693469403433   0.6584227720707738   0.46890514379255
0.06736024571363974   0.0908431670775286   0.2918141666042632
0.06736024571363974   0.0908431670775286   0.2918141666042632
0.06736024571363974   0.0908431670775286   0.2918141666042632
0.06736024571363974   0.0908431670775286   0.2918141666042632
0.824291669106252   0.6188140278022836   0.5047208687259825
0.824291669106252   0.6188140278022836   0.5047208687259825
0.824291669106252   0.6188140278022836   0.5047208687259825
0.824291669106252   0.6188140278022836   0.5047208687259825
              </DataArray>   
             <DataArray type="Float64" NumberOfComponents="3" Name="Displacements" format="ascii">   
0.4242680381951337   0.045701540693280474   0.9863150560367221
0.6087217170855247   0.4331242486127259   0.9202640336508772
0.4329226097307073   0.20695007484428907   0.9686016386738515
0.8255056189227976   0.9308901926409762   0.5402363090194046
0.7049182717338227   0.8986541744219085   0.3536192881355018
0.5963274848513062   0.6915971805926561   0.5240505000805394
0.10846005317794571   0.5154923230025552   0.3873783252984603
0.4248585822714136   0.2129153090902155   0.14059464455871573
              </DataArray>   
          </PointData>  
       </Piece>  
   </UnstructuredGrid> 
</VTKFile> 
